
Gurobi 11.0.3 (linux64) logging started Sat Nov 23 08:44:37 2024

Set parameter LogFile to value "/home/yihong/Coding/OR_SUC/SUC_results_bigM100000_thread4/case24_ieee_rts_theta0.5_epsilon0.05_gurobi_seed810000_num_gen100_N_WDR150_load_scaling_factor1_proposed_T24quadra_cost.txt"
Set parameter TimeLimit to value 3600
Gurobi Optimizer version 11.0.3 build v11.0.3rc0 (linux64 - "Ubuntu 20.04.6 LTS")

CPU model: AMD EPYC 7532 32-Core Processor, instruction set [SSE2|AVX|AVX2]
Thread count: 64 physical cores, 128 logical processors, using up to 4 threads

Optimize a model with 61352 rows, 29911 columns and 1720734 nonzeros
Model fingerprint: 0x3acee93f
Model has 2400 quadratic constraints
Variable types: 27511 continuous, 2400 integer (2400 binary)
Coefficient statistics:
  Matrix range     [3e-04, 2e+03]
  QMatrix range    [2e-03, 8e-03]
  QLMatrix range   [4e-01, 6e+01]
  Objective range  [1e+00, 1e+00]
  Bounds range     [1e+00, 1e+00]
  RHS range        [1e+00, 9e+03]
Presolve removed 50609 rows and 12690 columns
Presolve time: 0.50s
Presolved: 10743 rows, 17221 columns, 65947 nonzeros
Presolved model has 2400 quadratic constraint(s)
Variable types: 14821 continuous, 2400 integer (2400 binary)

Root relaxation: objective 5.671138e+04, 8873 iterations, 0.31 seconds (0.47 work units)

    Nodes    |    Current Node    |     Objective Bounds      |     Work
 Expl Unexpl |  Obj  Depth IntInf | Incumbent    BestBd   Gap | It/Node Time

     0     0 56711.3807    0   24          - 56711.3807      -     -    0s
     0     0 380678.231    0  640          - 380678.231      -     -    1s
     0     0 440543.281    0  644          - 440543.281      -     -    1s
     0     0 654366.833    0  596          - 654366.833      -     -    2s
     0     0 654395.742    0  392          - 654395.742      -     -    2s
     0     0 654559.969    0  324          - 654559.969      -     -    2s
     0     0 654563.525    0  324          - 654563.525      -     -    2s
     0     0 654563.525    0  324          - 654563.525      -     -    2s
     0     0 654564.473    0  324          - 654564.473      -     -    2s
     0     0 654564.473    0  324          - 654564.473      -     -    2s
     0     0 654564.678    0  324          - 654564.678      -     -    2s
     0     2 654564.678    0  324          - 654564.678      -     -    4s
    69    87 654683.199   14  269          - 654585.116      -  60.3    5s
H  419   293                    654840.67907 654585.116  0.04%  41.9    6s
*  419   293             155    654840.67907 654585.116  0.04%  41.9    6s

Cutting planes:
  Gomory: 4
  Implied bound: 283
  MIR: 37
  Flow cover: 111

Explored 466 nodes (41376 simplex iterations) in 6.80 seconds (9.02 work units)
Thread count was 4 (of 128 available processors)

Solution count 2: 654841 654841 

Optimal solution found (tolerance 1.00e-03)
Warning: max constraint violation (3.7815e-07) exceeds tolerance
Best objective 6.548406790692e+05, best bound 6.545851157400e+05, gap 0.0390%
